(set-info :smt-lib-version 2.6)
(set-logic QF_LIA)
(set-info :category "industrial")
(set-info :status sat)
(declare-fun x0 () Int)
(declare-fun x1 () Int)
(declare-fun x10 () Int)
(declare-fun x11 () Int)
(declare-fun x12 () Int)
(declare-fun x13 () Int)
(declare-fun x14 () Int)
(declare-fun x15 () Int)
(declare-fun x16 () Int)
(declare-fun x17 () Int)
(declare-fun x18 () Int)
(declare-fun x19 () Int)
(declare-fun x2 () Int)
(declare-fun x20 () Int)
(declare-fun x21 () Int)
(declare-fun x22 () Int)
(declare-fun x23 () Int)
(declare-fun x24 () Int)
(declare-fun x25 () Int)
(declare-fun x26 () Int)
(declare-fun x27 () Int)
(declare-fun x28 () Int)
(declare-fun x29 () Int)
(declare-fun x3 () Int)
(declare-fun x30 () Int)
(declare-fun x31 () Int)
(declare-fun x32 () Int)
(declare-fun x33 () Int)
(declare-fun x34 () Int)
(declare-fun x35 () Int)
(declare-fun x36 () Int)
(declare-fun x37 () Int)
(declare-fun x38 () Int)
(declare-fun x39 () Int)
(declare-fun x4 () Int)
(declare-fun x5 () Int)
(declare-fun x6 () Int)
(declare-fun x7 () Int)
(declare-fun x8 () Int)
(declare-fun x9 () Int)
(assert (let ((?v_46 (* 0 x10)) (?v_94 (* 0 x12)) (?v_7 (* 1 x1)) (?v_21 (* 1 x11)) (?v_13 (* 0 x2)) (?v_66 (* 0 x20)) (?v_9 (* 1 x21)) (?v_1 (* 0 x23)) (?v_2 (* 0 x24)) (?v_3 (* 0 x25)) (?v_24 (* 0 x28)) (?v_16 (* 1 x27)) (?v_4 (* 1 x32)) (?v_5 (* 0 x34)) (?v_29 (* 0 x35)) (?v_11 (* 0 x4)) (?v_83 (* 1 x6)) (?v_107 (* 1 x9)) (?v_72 (* 1 x12)) (?v_111 (* 1 x13)) (?v_22 (* 0 x19)) (?v_67 (* 0 x21)) (?v_81 (* 1 x17)) (?v_8 (* 0 x27)) (?v_14 (* 0 x29)) (?v_10 (* 0 x31)) (?v_17 (* 1 x30)) (?v_38 (* 0 x36)) (?v_54 (* 0 x37)) (?v_19 (* 1 x5)) (?v_12 (* 0 x8)) (?v_18 (* 1 x38)) (?v_47 (* 0 x11)) (?v_33 (* 1 x0)) (?v_48 (* 0 x13)) (?v_15 (* 1 x16)) (?v_57 (* 1 x29)) (?v_58 (* 2 x26)) (?v_27 (* 0 x30)) (?v_28 (* 0 x33)) (?v_44 (* 1 x39)) (?v_20 (* 0 x6)) (?v_40 (* 0 x7)) (?v_41 (* 0 x9)) (?v_42 (* 1 x34))) (let ((?v_118 (+ ?v_12 (+ ?v_41 ?v_42))) (?v_45 (* 0 x1)) (?v_93 (* 1 x10)) (?v_69 (* 1 x14)) (?v_53 (* 0 x39)) (?v_26 (* 0 x3)) (?v_30 (* 1 x18)) (?v_121 (* 1 x25)) (?v_56 (* 1 x28)) (?v_37 (* 1 x31)) (?v_115 (+ ?v_19 ?v_20)) (?v_64 (* 0 x0)) (?v_103 (* 2 x10)) (?v_65 (* 0 x17)) (?v_52 (* 1 x22)) (?v_59 (* 1 x36)) (?v_49 (* 0 x14)) (?v_68 (* 0 x32)) (?v_77 (* 0 x16)) (?v_96 (* 0 x18)) (?v_88 (* 1 x2)) (?v_90 (* 1 x20)) (?v_70 (* 1 x23)) (?v_71 (* 1 x7)) (?v_74 (* 0 x22)) (?v_97 (* 1 x33)) (?v_141 (* 2 x39)) (?v_102 (* 1 x8)) (?v_101 (* 0 x15)) (?v_82 (* 1 x26)) (?v_75 (* 1 x3)) (?v_106 (* 0 x26)) (?v_117 (* 1 x4)) (?v_87 (* 1 x15)) (?v_116 (* 0 x38)) (?v_138 (* 2 x15)) (?v_92 (* 0 x5)) (?v_98 (* 1 x35)) (?v_122 (* 2 x18)) (?v_139 (* 2 x21)) (?v_134 (* 2 x4)) (?v_126 (* 1 x24)) (?v_127 (* 1 x37))) (let ((?v_123 (+ ?v_127 (+ ?v_44 ?v_83))) (?v_136 (* 2 x16)) (?v_131 (+ ?v_102 ?v_107)) (?v_125 (* 1 x19)) (?v_130 (* 2 x31)) (?v_135 (+ ?v_127 ?v_107)) (?v_140 (* 2 x27)) (?v_133 (* 2 x19))) (let ((?v_132 (+ ?v_20 ?v_131)) (?v_137 (* 2 x5)) (?v_143 (+ ?v_141 ?v_83)) (?v_61 (* (- 1) x14)) (?v_142 (* (- 2) x30)) (?v_0 (* (- 1) x15)) (?v_34 (* (- 1) x17)) (?v_6 (* (- 1) x19)) (?v_31 (* (- 1) x1)) (?v_100 (* (- 1) x4)) (?v_85 (* (- 1) x22)) (?v_51 (* (- 1) x3)) (?v_62 (* (- 1) x2)) (?v_23 (* (- 1) x24)) (?v_79 (* (- 1) x36)) (?v_55 (* (- 1) x11)) (?v_35 (* (- 1) x20)) (?v_25 (* (- 1) x32)) (?v_80 (* (- 1) x9)) (?v_32 (* (- 1) x12)) (?v_112 (* (- 1) x26)) (?v_36 (* (- 1) x23)) (?v_39 (* (- 1) x38)) (?v_43 (* (- 1) x37)) (?v_73 (* (- 1) x18)) (?v_50 (* (- 1) x5)) (?v_63 (* (- 1) x28)) (?v_60 (* (- 1) x6)) (?v_108 (* (- 1) x10)) (?v_99 (* (- 2) x19)) (?v_129 (* (- 2) x24)) (?v_78 (* (- 1) x25)) (?v_113 (* (- 1) x35)) (?v_105 (* (- 1) x30)) (?v_91 (* (- 1) x31)) (?v_76 (* (- 1) x34)) (?v_110 (* (- 1) x39)) (?v_84 (* (- 1) x16)) (?v_86 (* (- 1) x33)) (?v_104 (* (- 1) x7)) (?v_89 (* (- 1) x27)) (?v_95 (* (- 1) x13)) (?v_119 (* (- 1) x8)) (?v_120 (* (- 2) x22)) (?v_128 (* (- 1) x21)) (?v_109 (* (- 1) x29)) (?v_114 (* (- 1) x0)) (?v_124 (* (- 2) x7))) (and (<= (+ ?v_46 (+ ?v_94 (+ ?v_7 (+ ?v_21 (+ (* (- 2) x13) (+ ?v_61 (+ ?v_142 (+ ?v_0 (+ ?v_34 (+ ?v_6 (+ ?v_13 (+ ?v_66 (+ ?v_9 (+ ?v_1 (+ ?v_2 (+ ?v_3 (+ ?v_24 (+ ?v_16 (+ ?v_4 (+ ?v_5 (+ ?v_29 (+ ?v_11 (+ ?v_83 ?v_107))))))))))))))))))))))) 0) (<= (+ ?v_31 (+ ?v_72 (+ (* (- 2) x9) (+ ?v_111 (+ ?v_0 (+ ?v_100 (+ ?v_22 (+ ?v_67 (+ ?v_81 (+ ?v_85 (+ ?v_1 (+ ?v_2 (+ ?v_51 (+ ?v_3 (+ ?v_8 (+ ?v_14 (+ ?v_10 (+ ?v_17 (+ ?v_4 (+ ?v_5 (+ (* 2 x35) (+ ?v_38 (+ ?v_54 (+ ?v_19 (+ ?v_12 ?v_18))))))))))))))))))))))))) (- 1)) (<= (+ ?v_47 (+ ?v_6 (+ ?v_62 (+ ?v_23 (+ ?v_79 (+ ?v_33 (+ ?v_7 (+ (* (- 3) x38) (+ ?v_48 (+ ?v_0 (+ ?v_8 (+ ?v_15 (+ ?v_9 (+ ?v_57 (+ ?v_58 (+ ?v_27 (+ ?v_10 (+ ?v_28 (+ ?v_11 (+ ?v_44 (+ ?v_20 (+ ?v_40 ?v_118)))))))))))))))))))))) 1) (<= (+ ?v_45 (+ ?v_93 (+ ?v_55 (+ ?v_69 (+ ?v_0 (+ ?v_6 (+ ?v_13 (+ ?v_35 (+ ?v_14 (+ ?v_53 (+ ?v_15 (+ ?v_1 (+ ?v_25 (+ ?v_80 (+ ?v_26 (+ ?v_30 (+ ?v_9 (+ ?v_121 (+ ?v_16 (+ ?v_56 (+ ?v_17 (+ ?v_37 (+ ?v_18 ?v_115))))))))))))))))))))))) 0) (<= (+ ?v_32 (+ ?v_64 (+ ?v_103 (+ ?v_21 (+ ?v_0 (+ ?v_22 (+ ?v_13 (+ ?v_23 (+ ?v_112 (+ ?v_65 (+ ?v_24 (+ ?v_52 (+ ?v_36 (+ ?v_16 (+ ?v_25 (+ ?v_26 (+ ?v_27 (+ ?v_10 (+ ?v_28 (+ ?v_29 (+ ?v_39 (+ ?v_12 (+ ?v_30 (+ ?v_59 ?v_43)))))))))))))))))))))))) (- 1)) (<= (+ ?v_31 (+ ?v_32 (+ ?v_49 (+ ?v_33 (+ ?v_21 (+ ?v_0 (+ ?v_34 (+ ?v_73 (+ ?v_13 (+ ?v_35 (+ ?v_36 (+ ?v_2 (+ ?v_8 (+ ?v_24 (+ ?v_14 (+ ?v_26 (+ ?v_37 (+ ?v_68 (+ ?v_28 (+ ?v_38 (+ ?v_39 (+ ?v_50 (+ ?v_20 (+ ?v_40 (+ ?v_41 (+ ?v_42 (+ ?v_43 ?v_44))))))))))))))))))))))))))) 0) (<= (+ ?v_45 (+ ?v_46 (+ ?v_47 (+ ?v_48 (+ ?v_49 (+ ?v_0 (+ ?v_63 (+ ?v_50 (+ ?v_77 (+ ?v_51 (+ ?v_96 (+ ?v_88 (+ ?v_2 (+ ?v_90 (+ ?v_52 (+ ?v_70 (+ ?v_3 (+ ?v_8 (+ ?v_14 (+ ?v_53 (+ ?v_11 (+ ?v_71 (+ (* 2 x32) (+ ?v_18 (+ ?v_60 (+ ?v_54 ?v_12)))))))))))))))))))))))))) 0) (<= (+ ?v_7 (+ ?v_55 (+ ?v_0 (+ ?v_34 (+ ?v_22 (+ ?v_35 (+ ?v_9 (+ ?v_74 (+ ?v_56 (+ ?v_57 (+ ?v_58 (+ ?v_51 (+ ?v_27 (+ ?v_4 (+ ?v_97 (+ ?v_59 (+ ?v_18 (+ ?v_141 (+ ?v_60 (+ ?v_41 (* 2 x34))))))))))))))))))))) 1) (<= (+ ?v_31 (+ ?v_108 (+ ?v_61 (+ ?v_99 (+ ?v_62 (+ ?v_129 (+ ?v_78 (+ ?v_63 (+ ?v_113 (+ ?v_64 (+ ?v_21 (+ ?v_65 (+ ?v_66 (+ ?v_67 (+ ?v_1 (+ ?v_16 (+ ?v_57 (+ ?v_27 (+ ?v_68 (+ ?v_28 (+ ?v_53 (+ ?v_19 ?v_102)))))))))))))))))))))) 0) (<= (+ ?v_46 (+ ?v_69 (+ ?v_34 (+ ?v_62 (+ ?v_23 (+ ?v_63 (+ ?v_105 (+ ?v_91 (+ (* (- 2) x38) (+ ?v_76 (+ ?v_110 (+ ?v_101 (+ ?v_22 (+ ?v_15 (+ ?v_52 (+ ?v_70 (+ ?v_3 (+ ?v_82 (+ ?v_28 (+ ?v_11 (+ ?v_41 (+ ?v_75 (+ ?v_20 ?v_71))))))))))))))))))))))) 0) (<= (+ ?v_46 (+ ?v_84 (+ ?v_33 (+ ?v_72 (+ ?v_73 (+ ?v_62 (+ ?v_86 (+ ?v_104 (+ ?v_48 (+ ?v_49 (+ ?v_66 (+ ?v_67 (+ ?v_74 (+ ?v_1 (+ ?v_3 (+ ?v_106 (+ ?v_56 (+ ?v_75 (+ ?v_27 (+ ?v_37 (+ ?v_76 (+ ?v_53 (+ ?v_117 (+ ?v_60 ?v_87)))))))))))))))))))))))) (- 1)) (<= (+ ?v_7 (+ ?v_55 (+ ?v_49 (+ ?v_35 (+ ?v_77 (+ ?v_22 (+ ?v_2 (+ ?v_78 (+ ?v_8 (+ ?v_24 (+ ?v_25 (+ ?v_79 (+ ?v_80 (+ ?v_26 (+ ?v_28 (+ ?v_53 (+ ?v_12 (+ ?v_33 (+ ?v_48 (+ ?v_81 (+ ?v_30 (+ ?v_52 (+ ?v_70 (+ ?v_82 (+ ?v_17 (+ ?v_42 (+ ?v_43 (+ ?v_116 (+ ?v_83 ?v_138))))))))))))))))))))))))))))) (- 1)) (<= (+ ?v_31 (+ ?v_46 (+ ?v_49 (+ ?v_84 (+ ?v_34 (+ ?v_22 (+ ?v_13 (+ ?v_67 (+ ?v_85 (+ ?v_36 (+ ?v_23 (+ ?v_89 (+ ?v_14 (+ ?v_51 (+ ?v_86 (+ ?v_92 (+ ?v_80 (+ ?v_33 (+ ?v_43 (+ ?v_87 (+ ?v_17 (+ ?v_98 (+ ?v_18 ?v_122))))))))))))))))))))))) 0) (<= (+ ?v_46 (+ ?v_55 (+ ?v_33 (+ ?v_95 (+ ?v_77 (+ ?v_81 (+ ?v_73 (+ ?v_22 (+ ?v_88 (+ ?v_89 (+ ?v_90 (+ ?v_74 (+ ?v_1 (+ ?v_2 (+ ?v_57 (+ (* 2 x28) (+ ?v_51 (+ ?v_91 (+ ?v_68 (+ ?v_28 (+ ?v_17 (+ ?v_43 (+ ?v_53 (+ ?v_92 (+ ?v_119 (+ ?v_41 (+ ?v_18 ?v_83))))))))))))))))))))))))))) (- 1)) (<= (+ ?v_45 (+ ?v_93 (+ ?v_47 (+ ?v_94 (+ ?v_120 (+ ?v_33 (+ ?v_95 (+ ?v_50 (+ ?v_65 (+ ?v_22 (+ ?v_13 (+ ?v_66 (+ ?v_67 (+ ?v_36 (+ ?v_51 (+ ?v_80 (+ ?v_96 (+ ?v_3 (+ ?v_14 (+ ?v_27 (+ ?v_97 (+ ?v_98 (+ ?v_59 (+ ?v_43 (+ ?v_39 (+ ?v_11 (+ ?v_71 (+ ?v_12 ?v_83)))))))))))))))))))))))))))) 1) (<= (+ (* (- 3) x1) (+ ?v_46 (+ ?v_99 (+ ?v_84 (+ ?v_79 (+ ?v_100 (+ ?v_33 (+ ?v_21 (+ ?v_60 (+ ?v_101 (+ ?v_81 (+ ?v_96 (+ ?v_13 (+ ?v_66 (+ ?v_2 (+ ?v_3 (+ ?v_8 (+ ?v_24 (+ ?v_14 (+ ?v_26 (+ ?v_27 (+ ?v_68 (+ ?v_98 ?v_102))))))))))))))))))))))) 1) (<= (+ ?v_103 (+ (* (- 3) x39) (+ ?v_55 (+ ?v_94 (+ ?v_128 (+ ?v_89 (+ ?v_109 (+ ?v_104 (+ (* (- 2) x8) (+ ?v_77 (+ ?v_36 (+ ?v_105 (+ ?v_64 (+ ?v_96 (+ ?v_13 (+ ?v_106 (+ ?v_24 (+ ?v_90 (+ ?v_26 (+ ?v_98 (+ ?v_11 (+ ?v_92 (+ ?v_18 (+ ?v_60 (+ ?v_42 ?v_107))))))))))))))))))))))))) 0) (<= (+ ?v_108 (+ ?v_109 (+ ?v_45 (+ (* (- 2) x32) (+ ?v_86 (+ ?v_79 (+ ?v_33 (+ ?v_39 (+ ?v_50 (+ ?v_48 (+ ?v_101 (+ ?v_77 (+ ?v_65 (+ ?v_139 (+ ?v_74 (+ ?v_2 (+ ?v_70 (+ ?v_3 (+ ?v_106 (+ ?v_16 (+ ?v_75 (+ ?v_27 (+ ?v_29 (+ ?v_40 (+ ?v_37 (+ ?v_134 (* 2 x6))))))))))))))))))))))))))) 0) (<= (+ ?v_94 (+ ?v_61 (+ ?v_62 (+ ?v_21 (+ ?v_22 (+ ?v_35 (+ ?v_74 (+ ?v_24 (+ ?v_14 (+ ?v_25 (+ ?v_79 (+ ?v_110 (+ ?v_50 (+ ?v_3 (+ ?v_27 (+ ?v_10 (+ ?v_28 (+ ?v_12 (+ ?v_41 (+ ?v_33 (+ ?v_111 (+ ?v_101 (+ ?v_126 (+ ?v_5 (+ ?v_54 ?v_18))))))))))))))))))))))))) 0) (<= (+ ?v_114 (+ ?v_108 (+ ?v_94 (+ ?v_21 (+ ?v_73 (+ ?v_112 (+ ?v_105 (+ ?v_91 (+ ?v_25 (+ ?v_39 (+ ?v_80 (+ ?v_48 (+ ?v_101 (+ ?v_77 (+ ?v_13 (+ ?v_67 (+ ?v_24 (+ ?v_52 (+ ?v_5 (+ ?v_29 ?v_123)))))))))))))))))))) 1) (<= (+ (* (- 2) x14) (+ ?v_91 (+ ?v_45 (+ ?v_46 (+ ?v_94 (+ ?v_25 (+ ?v_86 (+ ?v_113 (+ ?v_33 (+ ?v_39 (+ ?v_110 (+ ?v_48 (+ ?v_101 (+ ?v_65 (+ ?v_13 (+ ?v_66 (+ ?v_2 (+ ?v_136 (+ ?v_3 (+ ?v_14 (+ ?v_26 (+ ?v_27 (+ ?v_38 (+ ?v_30 (+ ?v_54 (+ ?v_83 ?v_131)))))))))))))))))))))))))) 0) (<= (+ (* (- 2) x3) (+ ?v_114 (+ ?v_32 (+ ?v_100 (+ ?v_104 (+ ?v_47 (+ ?v_48 (+ ?v_101 (+ ?v_96 (+ ?v_13 (+ ?v_125 (+ ?v_106 (+ ?v_16 (+ ?v_56 (+ ?v_27 (+ ?v_29 (+ ?v_97 (+ ?v_54 (+ ?v_53 ?v_115))))))))))))))))))) 0) (<= (+ ?v_114 (+ ?v_46 (+ ?v_62 (+ ?v_45 (+ ?v_47 (+ ?v_6 (+ ?v_85 (+ ?v_23 (+ ?v_25 (+ ?v_79 (+ ?v_101 (+ ?v_65 (+ ?v_66 (+ ?v_3 (+ ?v_58 (+ ?v_26 (+ ?v_27 (+ ?v_10 (+ ?v_28 (+ ?v_116 (+ ?v_117 (+ ?v_20 (+ ?v_40 (+ ?v_102 ?v_41)))))))))))))))))))))))) 0) (<= (+ ?v_114 (+ ?v_46 (+ ?v_32 (+ ?v_7 (+ ?v_21 (+ ?v_35 (+ ?v_78 (+ ?v_89 (+ ?v_51 (+ ?v_104 (+ ?v_48 (+ ?v_101 (+ ?v_65 (+ ?v_1 (+ ?v_28 (+ ?v_29 (+ ?v_38 (+ ?v_53 (+ ?v_92 (+ ?v_30 (+ ?v_130 (+ ?v_18 (+ ?v_20 ?v_118))))))))))))))))))))))) 0) (<= (+ ?v_93 (+ ?v_124 (+ ?v_61 (+ ?v_21 (+ ?v_35 (+ ?v_85 (+ ?v_113 (+ ?v_110 (+ ?v_119 (+ (* 2 x13) (+ ?v_101 (+ ?v_65 (+ ?v_13 (+ ?v_3 (+ ?v_106 (+ ?v_24 (+ ?v_14 (+ ?v_26 (+ ?v_30 (+ ?v_16 (+ ?v_17 (+ ?v_97 (+ ?v_59 (+ (* 2 x38) ?v_20)))))))))))))))))))))))) 1) (<= (+ ?v_94 (+ ?v_63 (+ ?v_69 (+ ?v_22 (+ ?v_88 (+ ?v_67 (+ ?v_120 (+ ?v_2 (+ ?v_106 (+ ?v_15 (+ ?v_57 (+ ?v_51 (+ ?v_105 (+ ?v_79 (+ ?v_101 (+ ?v_10 (+ ?v_29 (+ ?v_11 (+ ?v_12 (+ ?v_41 (+ ?v_121 (+ ?v_4 (+ ?v_44 ?v_122))))))))))))))))))))))) 1) (<= (+ ?v_47 (+ ?v_33 (+ ?v_93 (+ ?v_72 (+ ?v_95 (+ ?v_34 (+ ?v_85 (+ ?v_36 (+ ?v_112 (+ ?v_79 (+ ?v_80 (+ ?v_101 (+ ?v_15 (+ ?v_116 (+ ?v_92 (+ ?v_12 (+ ?v_30 (+ ?v_121 (+ ?v_75 (+ ?v_37 (+ ?v_42 ?v_123))))))))))))))))))))) (- 1)) (<= (+ ?v_124 (+ ?v_31 (+ ?v_93 (+ ?v_47 (+ ?v_94 (+ ?v_23 (+ ?v_48 (+ ?v_76 (+ ?v_101 (+ (* 2 x17) (+ ?v_96 (+ ?v_66 (+ ?v_74 (+ ?v_1 (+ ?v_14 (+ ?v_10 (+ ?v_28 (+ ?v_29 (+ ?v_59 (+ ?v_54 (+ ?v_53 (+ ?v_12 (+ ?v_18 (+ ?v_117 ?v_107)))))))))))))))))))))))) (- 1)) (<= (+ ?v_93 (+ ?v_47 (+ ?v_112 (+ ?v_86 (+ ?v_48 (+ ?v_76 (+ ?v_113 (+ ?v_110 (+ ?v_100 (+ ?v_60 (+ ?v_101 (+ ?v_77 (+ ?v_13 (+ ?v_1 (+ ?v_3 (+ ?v_8 (+ ?v_24 (+ ?v_14 (+ ?v_38 (+ ?v_40 (+ ?v_12 (+ ?v_30 (+ ?v_125 (+ ?v_90 (+ ?v_52 (+ ?v_126 (+ ?v_75 ?v_135))))))))))))))))))))))))))) 0) (<= (+ ?v_114 (+ ?v_46 (+ ?v_7 (+ ?v_95 (+ ?v_128 (+ ?v_49 (+ ?v_85 (+ ?v_78 (+ ?v_50 (+ ?v_60 (+ ?v_101 (+ ?v_77 (+ ?v_65 (+ ?v_22 (+ ?v_88 (+ ?v_2 (+ ?v_8 (+ ?v_10 (+ ?v_90 (+ ?v_26 (+ ?v_68 (+ ?v_38 (+ ?v_97 (+ ?v_98 (+ (* 2 x30) (+ ?v_116 (+ ?v_40 (+ ?v_12 ?v_42)))))))))))))))))))))))))))) 0) (<= (+ ?v_114 (+ ?v_108 (+ ?v_62 (+ ?v_100 (+ ?v_45 (+ ?v_47 (+ ?v_49 (+ ?v_14 (+ ?v_92 (+ ?v_9 (+ ?v_37 (+ ?v_60 (+ ?v_104 (+ ?v_119 (+ ?v_101 (+ ?v_125 (+ ?v_106 (+ (* 3 x17) (+ ?v_70 (+ ?v_27 (+ ?v_41 (+ ?v_4 (+ ?v_97 (+ ?v_42 (+ ?v_59 (+ ?v_18 ?v_44)))))))))))))))))))))))))) 0) (<= (+ ?v_45 (+ ?v_46 (+ ?v_94 (+ ?v_49 (+ ?v_13 (+ ?v_129 (+ ?v_51 (+ ?v_79 (+ ?v_119 (+ ?v_96 (+ ?v_125 (+ (* 2 x20) (+ ?v_1 (+ ?v_3 (+ ?v_14 (+ ?v_37 (+ ?v_140 (+ ?v_68 (+ ?v_5 (+ ?v_29 (+ ?v_116 (+ ?v_53 (+ ?v_92 (+ ?v_117 (+ ?v_71 ?v_107))))))))))))))))))))))))) 0) (<= (+ ?v_45 (+ ?v_46 (+ ?v_72 (+ ?v_35 (+ ?v_89 (+ ?v_63 (+ ?v_79 (+ ?v_33 (+ ?v_48 (+ ?v_49 (+ ?v_67 (+ ?v_133 (+ ?v_52 (+ ?v_1 (+ ?v_106 (+ ?v_68 (+ ?v_29 (+ ?v_92 (+ ?v_40 (+ ?v_41 (+ ?v_121 (+ ?v_75 (+ ?v_17 (+ ?v_130 (+ ?v_5 (+ ?v_116 (+ ?v_83 ?v_102))))))))))))))))))))))))))) 0) (<= (+ ?v_46 (+ ?v_55 (+ ?v_32 (+ ?v_34 (+ ?v_15 (+ (* (- 2) x18) (+ ?v_6 (+ ?v_109 (+ ?v_88 (+ ?v_128 (+ ?v_8 (+ ?v_52 (+ ?v_51 (+ ?v_91 (+ ?v_113 (+ ?v_48 (+ ?v_4 (+ ?v_5 (+ ?v_116 (+ ?v_11 ?v_132)))))))))))))))))))) 0) (<= (+ ?v_93 (+ ?v_47 (+ ?v_34 (+ ?v_77 (+ (* (- 2) x25) (+ (* (- 2) x33) (+ ?v_73 (+ ?v_67 (+ ?v_63 (+ ?v_113 (+ ?v_106 (+ ?v_14 (+ ?v_25 (+ ?v_40 (+ ?v_111 (+ ?v_90 (+ (* 2 x23) (+ ?v_17 (+ ?v_5 (+ ?v_59 (+ ?v_54 (+ ?v_117 (+ ?v_19 ?v_132))))))))))))))))))))))) 1) (<= (+ ?v_46 (+ ?v_7 (+ ?v_55 (+ ?v_84 (+ ?v_34 (+ ?v_62 (+ ?v_128 (+ ?v_39 (+ ?v_50 (+ ?v_48 (+ ?v_1 (+ ?v_106 (+ ?v_24 (+ ?v_40 (+ ?v_12 (+ ?v_30 (+ ?v_133 (+ ?v_16 (+ ?v_57 (+ ?v_17 (+ ?v_37 (+ ?v_4 (+ ?v_5 (+ ?v_98 (+ ?v_54 (+ ?v_20 ?v_107)))))))))))))))))))))))))) (- 1)) (<= (+ ?v_78 (+ ?v_105 (+ ?v_119 (+ ?v_64 (+ ?v_47 (+ ?v_15 (+ ?v_96 (+ ?v_22 (+ ?v_14 (+ ?v_10 (+ ?v_88 (+ ?v_8 (+ ?v_68 (+ ?v_97 (+ ?v_5 (+ ?v_29 (+ ?v_59 (+ ?v_116 (+ ?v_53 (+ ?v_134 (+ ?v_137 (+ ?v_20 ?v_135)))))))))))))))))))))) 0) (<= (+ ?v_108 (+ (* (- 2) x17) (+ ?v_62 (+ ?v_22 (+ ?v_112 (+ ?v_89 (+ ?v_63 (+ ?v_1 (+ ?v_51 (+ ?v_10 (+ ?v_86 (+ ?v_68 (+ ?v_92 (+ ?v_33 (+ ?v_21 (+ (* 2 x14) (+ ?v_136 (+ (* 2 x22) (+ ?v_39 (+ ?v_5 (+ ?v_59 (+ ?v_127 (* 2 x8))))))))))))))))))))))) (- 1)) (<= (+ ?v_31 (+ ?v_108 (+ ?v_55 (+ ?v_94 (+ ?v_49 (+ ?v_84 (+ ?v_34 (+ ?v_104 (+ ?v_13 (+ ?v_67 (+ ?v_89 (+ ?v_90 (+ ?v_52 (+ ?v_70 (+ ?v_78 (+ ?v_82 (+ ?v_56 (+ ?v_25 (+ ?v_26 (+ ?v_27 (+ ?v_111 (+ ?v_5 (+ ?v_38 (+ (* (- 2) x37) ?v_44)))))))))))))))))))))))) (- 1)) (<= (+ ?v_100 (+ ?v_49 (+ ?v_77 (+ ?v_105 (+ ?v_96 (+ ?v_67 (+ ?v_74 (+ ?v_106 (+ ?v_28 (+ ?v_40 (+ ?v_111 (+ ?v_81 (+ ?v_88 (+ ?v_16 (+ ?v_56 (+ ?v_57 (+ ?v_4 (+ ?v_42 (+ ?v_54 (+ ?v_18 (+ ?v_44 (+ ?v_137 (+ ?v_20 ?v_138))))))))))))))))))))))) 1) (<= (+ ?v_108 (+ ?v_7 (+ ?v_21 (+ (* (- 2) x27) (+ (* (- 2) x39) (+ ?v_84 (+ ?v_34 (+ ?v_64 (+ ?v_73 (+ ?v_62 (+ ?v_133 (+ ?v_66 (+ ?v_67 (+ ?v_36 (+ ?v_112 (+ ?v_51 (+ ?v_3 (+ ?v_14 (+ ?v_10 (+ ?v_38 (+ ?v_111 (+ ?v_4 (+ ?v_98 (+ ?v_54 (+ ?v_11 (+ ?v_20 ?v_41)))))))))))))))))))))))))) (- 1)) (<= (+ ?v_45 (+ ?v_46 (+ ?v_49 (+ ?v_14 (+ ?v_21 (+ ?v_22 (+ ?v_90 (+ ?v_1 (+ ?v_78 (+ ?v_106 (+ ?v_75 (+ ?v_105 (+ ?v_68 (+ ?v_33 (+ ?v_130 (+ ?v_59 (+ ?v_39 (+ ?v_11 (+ ?v_30 (+ ?v_44 (+ ?v_60 (+ ?v_104 (+ ?v_80 (+ ?v_5 (+ ?v_54 ?v_87))))))))))))))))))))))))) 0) (<= (+ ?v_108 (+ ?v_45 (+ ?v_94 (+ ?v_112 (+ ?v_79 (+ ?v_50 (+ ?v_1 (+ ?v_2 (+ ?v_3 (+ ?v_8 (+ ?v_26 (+ ?v_68 (+ ?v_28 (+ ?v_11 (+ ?v_40 (+ ?v_41 (+ ?v_33 (+ ?v_30 (+ ?v_56 (+ ?v_57 (+ ?v_17 (+ ?v_37 (+ ?v_98 (+ ?v_54 (+ ?v_18 (+ ?v_44 ?v_20)))))))))))))))))))))))))) (- 1)) (<= (+ ?v_93 (+ ?v_55 (+ ?v_49 (+ ?v_84 (+ ?v_34 (+ ?v_13 (+ ?v_23 (+ ?v_66 (+ ?v_139 (+ ?v_74 (+ ?v_1 (+ ?v_106 (+ ?v_51 (+ ?v_105 (+ ?v_86 (+ ?v_64 (+ ?v_10 (+ ?v_11 (+ ?v_40 (+ ?v_12 (+ ?v_121 (+ ?v_140 (+ (* 3 x32) (+ ?v_39 (+ ?v_54 ?v_143))))))))))))))))))))))))) 1) (<= (+ ?v_55 (+ ?v_61 (+ ?v_64 (+ ?v_7 (+ ?v_73 (+ ?v_35 (+ ?v_85 (+ ?v_63 (+ ?v_105 (+ ?v_113 (+ ?v_119 (+ ?v_48 (+ ?v_22 (+ ?v_67 (+ ?v_3 (+ ?v_26 (+ ?v_68 (+ ?v_28 (+ ?v_38 (+ ?v_53 (+ ?v_92 (+ ?v_117 (+ ?v_20 (+ ?v_41 ?v_87)))))))))))))))))))))))) 1) (<= (+ (* (- 2) x1) (+ ?v_124 (+ ?v_55 (+ ?v_84 (+ ?v_6 (+ ?v_64 (+ ?v_93 (+ ?v_66 (+ ?v_24 (+ ?v_68 (+ ?v_28 (+ ?v_53 (+ ?v_11 (+ ?v_41 (+ ?v_111 (+ ?v_69 (+ ?v_87 (+ ?v_52 (+ ?v_70 (+ ?v_121 (+ ?v_75 ?v_19))))))))))))))))))))) (- 1)) (<= (+ ?v_108 (+ ?v_45 (+ ?v_47 (+ ?v_142 (+ ?v_95 (+ ?v_69 (+ ?v_84 (+ ?v_73 (+ ?v_6 (+ ?v_67 (+ ?v_36 (+ ?v_23 (+ ?v_25 (+ ?v_3 (+ ?v_8 (+ ?v_14 (+ ?v_26 (+ ?v_29 (+ ?v_38 (+ ?v_97 (+ ?v_39 (+ ?v_5 (+ ?v_92 (+ ?v_12 (+ ?v_41 (+ ?v_87 (+ ?v_127 (+ ?v_117 ?v_143)))))))))))))))))))))))))))) 0) (<= (+ ?v_94 (+ ?v_7 (+ ?v_21 (+ (* 2 x0) (+ ?v_95 (+ ?v_13 (+ ?v_128 (+ ?v_63 (+ ?v_109 (+ ?v_91 (+ ?v_100 (+ ?v_69 (+ ?v_136 (+ ?v_1 (+ ?v_8 (+ ?v_26 (+ ?v_68 (+ ?v_28 (+ ?v_38 (+ ?v_116 (+ ?v_40 (+ ?v_41 (+ ?v_30 (+ ?v_52 (+ ?v_121 (+ ?v_20 (+ ?v_42 (+ ?v_102 ?v_138)))))))))))))))))))))))))))) 0) (<= (+ ?v_61 (+ ?v_45 (+ ?v_46 (+ ?v_72 (+ ?v_34 (+ ?v_35 (+ ?v_77 (+ ?v_36 (+ ?v_25 (+ ?v_110 (+ ?v_64 (+ ?v_96 (+ ?v_13 (+ ?v_74 (+ ?v_26 (+ ?v_10 (+ ?v_28 (+ ?v_11 (+ ?v_41 (+ ?v_111 (+ ?v_42 (+ ?v_18 ?v_138)))))))))))))))))))))) (- 1)) (<= (+ (* (- 2) x11) (+ ?v_61 (+ ?v_128 (+ ?v_105 (+ ?v_110 (+ ?v_100 (+ ?v_119 (+ ?v_64 (+ ?v_94 (+ ?v_65 (+ ?v_96 (+ ?v_90 (+ ?v_74 (+ ?v_1 (+ ?v_106 (+ ?v_14 (+ ?v_10 (+ ?v_38 (+ ?v_140 (+ ?v_41 (+ ?v_121 (+ ?v_4 (+ (* 3 x13) (+ ?v_83 (* 2 x37))))))))))))))))))))))))) 0)))))))
(check-sat)
(exit)
